Reading model...
...model read.
creating competitive generators file...
...competitive generators recorded.
Loading data...
.. day-ahead data read.
Compiling instance...
...instance created.
Creating Offer Mitigation (model will solve as dispatch if TRUE)...
Solving...

Welcome to IBM(R) ILOG(R) CPLEX(R) Interactive Optimizer 12.10.0.0
  with Simplex, Mixed Integer & Barrier Optimizers
5725-A06 5725-A29 5724-Y48 5724-Y49 5724-Y54 5724-Y55 5655-Y21
Copyright IBM Corp. 1988, 2019.  All Rights Reserved.

Type 'help' for a list of available commands.
Type 'help' followed by a command name for more
information on commands.

CPLEX> Logfile 'cplex.log' closed.
Logfile 'C:\Users\wenmi\Desktop\competitiveMPEC\logs\tmp5kb57nrl.cplex.log' open.
CPLEX> New value for parallel optimization mode: -1
CPLEX> New value for mixed integer optimality gap tolerance: 0.01
CPLEX> New value for deterministic time limit in ticks: 30000
CPLEX> Problem 'C:\Users\wenmi\Desktop\competitiveMPEC\logs\tmp28ojs92l.pyomo.lp' read.
Read time = 0.03 sec. (2.94 ticks)
CPLEX> Problem name         : C:\Users\wenmi\Desktop\competitiveMPEC\logs\tmp28ojs92l.pyomo.lp
Objective sense      : Minimize
Variables            :   26077  [Nneg: 1,  Box: 21612,  Free: 4464]
Objective nonzeros   :    2496
Linear constraints   :   27585  [Less: 14028,  Greater: 4416,  Equal: 9141]
  Nonzeros           :   86845
  RHS nonzeros       :   12258

Variables            : Min LB: -5000.000        Max UB: 1000000.       
Objective nonzeros   : Min   : 15.73158         Max   : 124.0997       
Linear constraints   :
  Nonzeros           : Min   : 0.9219544        Max   : 3000.000       
  RHS nonzeros       : Min   : 0.1000000        Max   : 5000.000       
CPLEX> Version identifier: 12.10.0.0 | 2019-11-26 | 843d4de2ae
CPXPARAM_Parallel                                -1
CPXPARAM_DetTimeLimit                            30000
CPXPARAM_MIP_Tolerances_MIPGap                   0.01
Parallel mode: opportunistic, using up to 16 threads for concurrent optimization:
 * Starting dual Simplex on 1 thread...
 * Starting Barrier on 14 threads...
 * Starting primal Simplex on 1 thread...
Tried aggregator 1 time.
LP Presolve eliminated 21451 rows and 15520 columns.
Aggregator did 776 substitutions.
Reduced LP has 5358 rows, 9781 columns, and 30366 nonzeros.
Presolve time = 0.05 sec. (29.15 ticks)
Symmetry aggregator did 5571 additional substitutions.
Initializing dual steep norms . . .

Iteration log . . .
Iteration:     1   Dual objective     =             0.000000
Perturbation started.
Iteration:   101   Dual objective     =             0.000000
Iteration:   343   Dual objective     =            47.341710
Iteration:   580   Dual objective     =            58.635744
Iteration:   790   Dual objective     =            59.072982
Iteration:   964   Dual objective     =        152026.183763
Iteration:  1121   Dual objective     =        172301.230154
Iteration:  1384   Dual objective     =        176286.994079
Removing perturbation.

Dual crossover.
  Dual:  Fixing 9 variables.
        8 DMoves:  Infeasibility  5.15143483e-14  Objective  1.76227879e+05
        0 DMoves:  Infeasibility  5.54547016e-16  Objective  1.76227879e+05
  Dual:  Pushed 0, exchanged 9.
  Primal:  Fixing 4 variables.
        3 PMoves:  Infeasibility  1.23327482e-09  Objective  1.76227879e+05
        0 PMoves:  Infeasibility  1.23327482e-09  Objective  1.76227879e+05
  Primal:  Pushed 4, exchanged 0.

Dual simplex solved model.


Dual simplex - Optimal:  Objective =  1.7622787860e+05
Solution time =    0.11 sec.  Iterations = 1384 (0)
Deterministic time = 75.51 ticks  (686.49 ticks/sec)

CPLEX> Solution written to file 'C:\Users\wenmi\Desktop\competitiveMPEC\logs\tmp_b65c3lc.cplex.sol'.
CPLEX> Exporting results... 
...storage offer mitigation file created
Converting model to MPEC...
...converted
NOTE: initial MIP solve with only storage competitive to get feasible solution
Solving...

Welcome to IBM(R) ILOG(R) CPLEX(R) Interactive Optimizer 12.10.0.0
  with Simplex, Mixed Integer & Barrier Optimizers
5725-A06 5725-A29 5724-Y48 5724-Y49 5724-Y54 5724-Y55 5655-Y21
Copyright IBM Corp. 1988, 2019.  All Rights Reserved.

Type 'help' for a list of available commands.
Type 'help' followed by a command name for more
information on commands.

CPLEX> Logfile 'cplex.log' closed.
Logfile 'C:\Users\wenmi\Desktop\competitiveMPEC\logs\tmpl0q9lfoc.cplex.log' open.
CPLEX> New value for parallel optimization mode: -1
CPLEX> New value for mixed integer optimality gap tolerance: 0.01
CPLEX> New value for deterministic time limit in ticks: 30000
CPLEX> Problem 'C:\Users\wenmi\Desktop\competitiveMPEC\logs\tmpn8utr6kw.pyomo.lp' read.
Read time = 0.16 sec. (13.57 ticks)
CPLEX> Problem name         : C:\Users\wenmi\Desktop\competitiveMPEC\logs\tmpn8utr6kw.pyomo.lp
Objective sense      : Maximize
Variables            :   53803  [Nneg: 1,  Box: 21998,  Free: 4464,
                                 Binary: 27340]
Objective nonzeros   :    9019
Linear constraints   :  123275  [Less: 41368,  Greater: 59096,  Equal: 22811]
  Nonzeros           :  289344
  RHS nonzeros       :   67478

Variables            : Min LB: -5000.000        Max UB: 1000000.       
Objective nonzeros   : Min   : 0.1000000        Max   : 2500.000       
Linear constraints   :
  Nonzeros           : Min   : 0.1000000        Max   : 1000000.       
  RHS nonzeros       : Min   : 0.1000000        Max   : 1000000.       
CPLEX> Version identifier: 12.10.0.0 | 2019-11-26 | 843d4de2ae
CPXPARAM_Parallel                                -1
CPXPARAM_DetTimeLimit                            30000
CPXPARAM_MIP_Tolerances_MIPGap                   0.01
Tried aggregator 3 times.
MIP Presolve eliminated 88993 rows and 19221 columns.
MIP Presolve added 3355 rows and 0 columns.
MIP Presolve modified 24782 coefficients.
Aggregator did 12951 substitutions.
Reduced MIP has 24686 rows, 21049 columns, and 68084 nonzeros.
Reduced MIP has 8313 binaries, 0 generals, 0 SOSs, and 0 indicators.
Presolve time = 0.16 sec. (164.77 ticks)
Probing fixed 360 vars, tightened 4048 bounds.
Probing time = 0.03 sec. (17.60 ticks)
Tried aggregator 2 times.
Detecting symmetries...
MIP Presolve eliminated 813 rows and 722 columns.
MIP Presolve modified 3222 coefficients.
Aggregator did 36 substitutions.
Reduced MIP has 23837 rows, 20291 columns, and 65628 nonzeros.
Reduced MIP has 7952 binaries, 0 generals, 0 SOSs, and 0 indicators.
Presolve time = 0.06 sec. (89.19 ticks)
Probing fixed 0 vars, tightened 328 bounds.
Probing time = 0.08 sec. (21.03 ticks)
Clique table members: 43827.
MIP emphasis: balance optimality and feasibility.
MIP search method: dynamic search.
Parallel mode: opportunistic, using up to 16 threads.
Root relaxation solution time = 0.30 sec. (629.67 ticks)

        Nodes                                         Cuts/
   Node  Left     Objective  IInf  Best Integer    Best Bound    ItCnt     Gap

      0     0     9019.8511    93                   9019.8511     5829         
      0     0     8417.4391    93                    Cuts: 22     5843         
      0     0     8416.8413    93                    Cuts: 12     5868         
      0     0     8079.8671    93                    Cuts: 58     5892         
*     0+    0                         5169.3459     8079.8671            56.30%
      0     0     7419.9460    93     5169.3459      Cuts: 16     5910   38.74%
*     0+    0                         5450.0914     7172.1352            31.60%
      0     0        cutoff           5450.0914     7172.1352     5910   31.60%
      0     0     7416.3758    93     5450.0914       Cuts: 8     5919   31.60%
      0     0     6901.6421    93     5450.0914      Cuts: 47     5953   26.63%
      0     0     6721.0040    93     5450.0914      Cuts: 17     5974   23.32%
*     0+    0                         5645.1196     6721.0040            19.06%
      0     0     6545.4966    93     5645.1196      Cuts: 53     6002   15.95%
      0     0     6340.4678    93     5645.1196      Cuts: 40     6056   12.32%
      0     0     6246.0166    93     5645.1196      Cuts: 25     6075   10.64%
      0     0     6229.7389    93     5645.1196      Cuts: 17     6096   10.36%
      0     0     6207.8368    93     5645.1196      Cuts: 31     6113    9.97%

Repeating presolve.
Tried aggregator 3 times.
MIP Presolve eliminated 8867 rows and 6735 columns.
MIP Presolve modified 16963 coefficients.
Aggregator did 196 substitutions.
Reduced MIP has 14774 rows, 13359 columns, and 41712 nonzeros.
Reduced MIP has 5036 binaries, 0 generals, 0 SOSs, and 0 indicators.
Presolve time = 0.06 sec. (59.13 ticks)
Probing fixed 575 vars, tightened 20839 bounds.
Probing time = 0.09 sec. (77.56 ticks)
Cover probing fixed 22 vars, tightened 1284 bounds.
Tried aggregator 3 times.
MIP Presolve eliminated 4897 rows and 4635 columns.
MIP Presolve modified 4053 coefficients.
Aggregator did 56 substitutions.
Reduced MIP has 9821 rows, 8666 columns, and 28292 nonzeros.
Reduced MIP has 3240 binaries, 0 generals, 0 SOSs, and 0 indicators.
Presolve time = 0.02 sec. (28.86 ticks)
Probing fixed 31 vars, tightened 3910 bounds.
Probing time = 0.03 sec. (23.64 ticks)
Cover probing fixed 29 vars, tightened 167 bounds.
Tried aggregator 2 times.
MIP Presolve eliminated 239 rows and 217 columns.
MIP Presolve modified 2509 coefficients.
Aggregator did 6 substitutions.
Reduced MIP has 9576 rows, 8442 columns, and 27611 nonzeros.
Reduced MIP has 3148 binaries, 0 generals, 0 SOSs, and 0 indicators.
Presolve time = 0.02 sec. (16.03 ticks)
Probing fixed 4 vars, tightened 2740 bounds.
Probing time = 0.03 sec. (16.37 ticks)
Tried aggregator 2 times.
Detecting symmetries...
MIP Presolve eliminated 21 rows and 19 columns.
MIP Presolve modified 2362 coefficients.
Aggregator did 1 substitutions.
Reduced MIP has 9554 rows, 8422 columns, and 27524 nonzeros.
Reduced MIP has 3144 binaries, 0 generals, 0 SOSs, and 0 indicators.
Presolve time = 0.02 sec. (26.27 ticks)
Represolve time = 0.36 sec. (309.97 ticks)
Probing fixed 8 vars, tightened 2304 bounds.
Probing time = 0.01 sec. (12.34 ticks)
Cover probing fixed 4 vars, tightened 123 bounds.
Clique table members: 5883.
MIP emphasis: balance optimality and feasibility.
MIP search method: dynamic search.
Parallel mode: opportunistic, using up to 16 threads.
Root relaxation solution time = 0.08 sec. (187.19 ticks)

        Nodes                                         Cuts/
   Node  Left     Objective  IInf  Best Integer    Best Bound    ItCnt     Gap

*     0+    0                         5645.1196     6203.0746             9.88%
      0     0     6180.1230    83     5645.1196     6180.1230     8767    9.48%
      0     0     6019.6761    83     5645.1196      Cuts: 24     8816    6.64%
      0     0     6019.6761    83     5645.1196       Cuts: 5     8822    6.64%
      0     0     5861.1574    83     5645.1196      Cuts: 32     8830    3.83%
      0     0     5861.1574    83     5645.1196       Cuts: 5     8831    3.83%
*     0+    0                         5800.1355     5861.1574             1.05%
      0     0        cutoff           5800.1355     5800.1355     8831    0.00%
Elapsed time = 5.02 sec. (3851.55 ticks, tree = 0.01 MB, solutions = 4)

Clique cuts applied:  1
Implied bound cuts applied:  8
Flow cuts applied:  16
Mixed integer rounding cuts applied:  20
Lift and project cuts applied:  3
Gomory fractional cuts applied:  11

Root node processing (before b&c):
  Real time             =    5.02 sec. (3854.23 ticks)
Parallel b&c, 16 threads:
  Real time             =    0.00 sec. (0.00 ticks)
  Sync time (average)   =    0.00 sec.
  Wait time (average)   =    0.00 sec.
                          ------------
Total (root+branch&cut) =    5.02 sec. (3854.23 ticks)

Solution pool: 4 solutions saved.

MIP - Integer optimal solution:  Objective =  5.8001355204e+03
Solution time =    5.02 sec.  Iterations = 8831  Nodes = 0
Deterministic time = 3854.38 ticks  (768.42 ticks/sec)

CPLEX> Incumbent solution written to file 'C:\Users\wenmi\Desktop\competitiveMPEC\logs\tmp_baoyiiz.cplex.sol'.
CPLEX> NOTE: no warmstart specified for MIP iteration, default behavior is true
NOTE: resolving with all competitive generators using storage-only solution to warmstart
Solving...

Welcome to IBM(R) ILOG(R) CPLEX(R) Interactive Optimizer 12.10.0.0
  with Simplex, Mixed Integer & Barrier Optimizers
5725-A06 5725-A29 5724-Y48 5724-Y49 5724-Y54 5724-Y55 5655-Y21
Copyright IBM Corp. 1988, 2019.  All Rights Reserved.

Type 'help' for a list of available commands.
Type 'help' followed by a command name for more
information on commands.

CPLEX> Logfile 'cplex.log' closed.
Logfile 'C:\Users\wenmi\Desktop\competitiveMPEC\logs\tmp0ztqb9ir.cplex.log' open.
CPLEX> New value for parallel optimization mode: -1
CPLEX> New value for mixed integer optimality gap tolerance: 0.01
CPLEX> New value for deterministic time limit in ticks: 30000
CPLEX> Problem 'C:\Users\wenmi\Desktop\competitiveMPEC\logs\tmpwpdc0pmg.pyomo.lp' read.
Read time = 0.14 sec. (13.59 ticks)
CPLEX> MIP start file 'C:\Users\wenmi\Desktop\competitiveMPEC\logs\tmpd3dh1w6b.cplex.mst' read.
CPLEX> Problem name         : C:\Users\wenmi\Desktop\competitiveMPEC\logs\tmpwpdc0pmg.pyomo.lp
Objective sense      : Maximize
Variables            :   54523  [Nneg: 1,  Box: 22718,  Free: 4464,
                                 Binary: 27340]
Objective nonzeros   :    9715
Linear constraints   :  123275  [Less: 41368,  Greater: 59096,  Equal: 22811]
  Nonzeros           :  289344
  RHS nonzeros       :   67478

Variables            : Min LB: -5000.000        Max UB: 1000000.       
Objective nonzeros   : Min   : 0.1000000        Max   : 2500.000       
Linear constraints   :
  Nonzeros           : Min   : 0.1000000        Max   : 1000000.       
  RHS nonzeros       : Min   : 0.1000000        Max   : 1000000.       
CPLEX> Version identifier: 12.10.0.0 | 2019-11-26 | 843d4de2ae
CPXPARAM_Parallel                                -1
CPXPARAM_DetTimeLimit                            30000
CPXPARAM_MIP_Tolerances_MIPGap                   0.01
1 of 1 MIP starts provided solutions.
MIP start 'm1' defined initial solution with objective 46535.4044.
Tried aggregator 3 times.
MIP Presolve eliminated 88993 rows and 19941 columns.
MIP Presolve added 3355 rows and 0 columns.
MIP Presolve modified 24782 coefficients.
Aggregator did 12951 substitutions.
Reduced MIP has 24686 rows, 21049 columns, and 68084 nonzeros.
Reduced MIP has 8313 binaries, 0 generals, 0 SOSs, and 0 indicators.
Presolve time = 0.17 sec. (165.12 ticks)
Probing fixed 360 vars, tightened 4048 bounds.
Probing time = 0.05 sec. (17.60 ticks)
Tried aggregator 2 times.
Detecting symmetries...
MIP Presolve eliminated 813 rows and 722 columns.
MIP Presolve modified 3222 coefficients.
Aggregator did 36 substitutions.
Reduced MIP has 23837 rows, 20291 columns, and 65628 nonzeros.
Reduced MIP has 7952 binaries, 0 generals, 0 SOSs, and 0 indicators.
Presolve time = 0.08 sec. (89.20 ticks)
Probing fixed 0 vars, tightened 328 bounds.
Probing time = 0.08 sec. (21.03 ticks)
Clique table members: 43827.
MIP emphasis: balance optimality and feasibility.
MIP search method: dynamic search.
Parallel mode: opportunistic, using up to 16 threads.
Root relaxation solution time = 0.30 sec. (658.34 ticks)

        Nodes                                         Cuts/
   Node  Left     Objective  IInf  Best Integer    Best Bound    ItCnt     Gap

*     0+    0                        46535.4044   7.33499e+07              --- 
      0     0    81064.3244   181    46535.4044    81064.3244     6201   74.20%
      0     0    79591.5083   181    46535.4044     Cuts: 286     6344   71.03%
      0     0    79211.4388   181    46535.4044     Cuts: 297     6424   70.22%
      0     0    78506.6365   181    46535.4044     Cuts: 144     6482   68.70%
      0     0    78492.0418   181    46535.4044      Cuts: 28     6506   68.67%
      0     0    77856.6900   181    46535.4044      Cuts: 77     6541   67.31%
      0     0    77771.8534   181    46535.4044      Cuts: 28     6553   67.12%
      0     0    77767.7384   181    46535.4044      Cuts: 12     6566   67.12%
      0     0    77767.7384   181    46535.4044   Flowcuts: 3     6567   67.12%
      0     0    77767.7384   181    46535.4044      Cuts: 17     6575   67.12%
      0     2    77767.7384    56    46535.4044    77767.7384     6575   67.12%
Elapsed time = 4.05 sec. (2909.56 ticks, tree = 0.02 MB, solutions = 1)
    167    87    57967.2725    24    46535.4044    77577.0781     7221   66.71%
    522   157    65505.4957    18    46535.4044    77577.0781     7610   66.71%
    876   676    57441.6306    11    46535.4044    77577.0781    12132   66.71%
*  1030   558      integral     0    47644.5021    75253.3218    10846   57.95%
   1353   671    50428.2296    17    47644.5021    74624.7959    12326   56.63%
   1679  1243    50023.4101     1    47644.5021    74550.3311    18184   56.47%
*  1826  1239      integral     0    48947.5452    74550.3311    18200   52.31%
   2230  1187    63618.3430    32    48947.5452    74550.3311    17885   52.31%
   2550  1344    61457.9416    27    48947.5452    74278.5881    19426   51.75%
*  3262  2042      integral     0    50023.4101    74032.0271    28189   47.99%
Elapsed time = 14.42 sec. (5258.72 ticks, tree = 14.74 MB, solutions = 8)
   4575  2431    55008.6165    35    50023.4101    73956.8438    32686   47.84%

Performing restart 1

Repeating presolve.
Tried aggregator 4 times.
MIP Presolve eliminated 798 rows and 720 columns.
MIP Presolve modified 33065 coefficients.
Aggregator did 252 substitutions.
Reduced MIP has 22787 rows, 19319 columns, and 62141 nonzeros.
Reduced MIP has 7640 binaries, 0 generals, 0 SOSs, and 0 indicators.
Presolve time = 0.09 sec. (108.64 ticks)
Tried aggregator 2 times.
MIP Presolve eliminated 451 rows and 376 columns.
MIP Presolve modified 12178 coefficients.
Aggregator did 5 substitutions.
Reduced MIP has 22331 rows, 18938 columns, and 60858 nonzeros.
Reduced MIP has 7452 binaries, 0 generals, 0 SOSs, and 0 indicators.
Presolve time = 0.05 sec. (41.24 ticks)
Tried aggregator 1 time.
MIP Presolve modified 9700 coefficients.
Reduced MIP has 22331 rows, 18938 columns, and 60858 nonzeros.
Reduced MIP has 7452 binaries, 0 generals, 0 SOSs, and 0 indicators.
Presolve time = 0.05 sec. (42.60 ticks)
Represolve time = 0.67 sec. (496.64 ticks)
   4999     0    77682.7281   173    50023.4101     Cuts: 303    47776   43.71%
   4999     0    77681.2310   173    50023.4101     Cuts: 105    47860   43.71%
   4999     0    77673.6136   173    50023.4101      Cuts: 52    47927   43.71%
   4999     0    77673.6136   173    50023.4101      Cuts: 76    47979   43.71%
   4999     0    77673.6136   173    50023.4101      Cuts: 44    48025   43.71%
   4999     0    77673.6136   173    50023.4101      Cuts: 55    48080   43.71%
   4999     0    77673.6136   173    50023.4101      Cuts: 45    48131   43.71%
   4999     4    71749.5746    64    50023.4101    71890.2498    48139   43.71%
   5343   257    52128.9103    46    50023.4101    67795.9719    51504   35.53%
   6018   473    60470.3616    52    50023.4101    67795.9719    54918   35.53%
   6921   474    58118.8014    35    50023.4101    67717.5910    54788   35.37%
   8191  1564    51468.6702    25    50023.4101    65823.6870    66491   31.59%
   9629  1655    51989.1300    25    50023.4101    65823.6870    67039   31.59%
  11160  2008        cutoff          50023.4101    64672.5488    70380   29.28%
  12578  2677    52481.6934    32    50023.4101    64420.1608    76300   28.78%
  14081  3832    51039.3694    25    50023.4101    62886.1079    88937   25.71%
Elapsed time = 58.34 sec. (18698.57 ticks, tree = 29.78 MB, solutions = 9)
  15387  4221    57162.7268    52    50712.6508    62616.5955    94212   23.47%
  16727  5919    58294.5083    31    50712.6508    62360.3386   110777   22.97%
  18206  7573    51293.1940    18    50712.6508    62112.8074   145649   22.48%
  19646  6401    56041.9214    32    50773.4091    61879.4665   130688   21.87%
  21060  8420    57127.9076    43    50773.4091    61791.4428   157716   21.70%
  22537  8539    56550.0993    39    50773.4091    61586.8101   178219   21.30%
  23537  8431        cutoff          50773.4091    61530.7966   157546   21.19%
  24384  9066    56794.1576    51    50773.4091    61530.7966   186413   21.19%
  25170  8610    57550.6808    76    50773.4091    61530.7966   179701   21.19%
  25881  8718    50781.8055    10    50773.4091    61530.7966   180508   21.19%
Elapsed time = 82.11 sec. (28242.82 ticks, tree = 68.45 MB, solutions = 12)
  26465  9557    53672.6240    43    50773.4091    61530.7966   195086   21.19%

Cover cuts applied:  6
Implied bound cuts applied:  10
Flow cuts applied:  75
Mixed integer rounding cuts applied:  27
Zero-half cuts applied:  1
Lift and project cuts applied:  6
Gomory fractional cuts applied:  13

Root node processing (before b&c):
  Real time             =    3.25 sec. (2852.75 ticks)
Parallel b&c, 16 threads:
  Real time             =   78.92 sec. (27155.34 ticks)
  Sync time (average)   =    0.61 sec.
  Wait time (average)   =    0.04 sec.
                          ------------
Total (root+branch&cut) =   82.17 sec. (30008.09 ticks)

Solution pool: 12 solutions saved.

MIP - Deterministic time limit exceeded, integer feasible:  Objective =  5.0773409062e+04
Current MIP best bound =  6.0972014266e+04 (gap = 10198.6, 20.09%)
Solution time =   82.17 sec.  Iterations = 225111  Nodes = 26698 (11208)
Deterministic time = 30008.25 ticks  (365.19 ticks/sec)

CPLEX> Incumbent solution written to file 'C:\Users\wenmi\Desktop\competitiveMPEC\logs\tmpghmyuz8t.cplex.sol'.
CPLEX> Exporting results... 
